p cnf 66 438
1 4 7 10 13 16 19 22 25 28 31 34 37 40 43 46 49 52 55 58 61 64 0 
2 5 8 11 14 17 20 23 26 29 32 35 38 41 44 47 50 53 56 59 62 65 0 
3 6 9 12 15 18 21 24 27 30 33 36 39 42 45 48 51 54 57 60 63 66 0 
-1 -2 0 
-1 -3 0 
-2 -3 0 
-4 -5 0 
-4 -6 0 
-5 -6 0 
-7 -8 0 
-7 -9 0 
-8 -9 0 
-10 -11 0 
-10 -12 0 
-11 -12 0 
-13 -14 0 
-13 -15 0 
-14 -15 0 
-16 -17 0 
-16 -18 0 
-17 -18 0 
-19 -20 0 
-19 -21 0 
-20 -21 0 
-22 -23 0 
-22 -24 0 
-23 -24 0 
-25 -26 0 
-25 -27 0 
-26 -27 0 
-28 -29 0 
-28 -30 0 
-29 -30 0 
-31 -32 0 
-31 -33 0 
-32 -33 0 
-34 -35 0 
-34 -36 0 
-35 -36 0 
-37 -38 0 
-37 -39 0 
-38 -39 0 
-40 -41 0 
-40 -42 0 
-41 -42 0 
-43 -44 0 
-43 -45 0 
-44 -45 0 
-46 -47 0 
-46 -48 0 
-47 -48 0 
-49 -50 0 
-49 -51 0 
-50 -51 0 
-52 -53 0 
-52 -54 0 
-53 -54 0 
-55 -56 0 
-55 -57 0 
-56 -57 0 
-58 -59 0 
-58 -60 0 
-59 -60 0 
-61 -62 0 
-61 -63 0 
-62 -63 0 
-64 -65 0 
-64 -66 0 
-65 -66 0 
-1 -31 0 
-1 -32 0 
-1 -33 0 
-2 -31 0 
-2 -32 0 
-2 -33 0 
-3 -31 0 
-3 -32 0 
-3 -33 0 
-1 -37 0 
-1 -38 0 
-1 -39 0 
-2 -37 0 
-2 -38 0 
-2 -39 0 
-3 -37 0 
-3 -38 0 
-3 -39 0 
-1 -40 0 
-1 -41 0 
-1 -42 0 
-2 -40 0 
-2 -41 0 
-2 -42 0 
-3 -40 0 
-3 -41 0 
-3 -42 0 
-1 -46 0 
-1 -47 0 
-1 -48 0 
-2 -46 0 
-2 -47 0 
-2 -48 0 
-3 -46 0 
-3 -47 0 
-3 -48 0 
-1 -49 0 
-1 -50 0 
-1 -51 0 
-2 -49 0 
-2 -50 0 
-2 -51 0 
-3 -49 0 
-3 -50 0 
-3 -51 0 
-1 -64 0 
-1 -65 0 
-1 -66 0 
-2 -64 0 
-2 -65 0 
-2 -66 0 
-3 -64 0 
-3 -65 0 
-3 -66 0 
-4 -7 0 
-4 -8 0 
-4 -9 0 
-5 -7 0 
-5 -8 0 
-5 -9 0 
-6 -7 0 
-6 -8 0 
-6 -9 0 
-4 -22 0 
-4 -23 0 
-4 -24 0 
-5 -22 0 
-5 -23 0 
-5 -24 0 
-6 -22 0 
-6 -23 0 
-6 -24 0 
-4 -25 0 
-4 -26 0 
-4 -27 0 
-5 -25 0 
-5 -26 0 
-5 -27 0 
-6 -25 0 
-6 -26 0 
-6 -27 0 
-7 -13 0 
-7 -14 0 
-7 -15 0 
-8 -13 0 
-8 -14 0 
-8 -15 0 
-9 -13 0 
-9 -14 0 
-9 -15 0 
-7 -19 0 
-7 -20 0 
-7 -21 0 
-8 -19 0 
-8 -20 0 
-8 -21 0 
-9 -19 0 
-9 -20 0 
-9 -21 0 
-7 -28 0 
-7 -29 0 
-7 -30 0 
-8 -28 0 
-8 -29 0 
-8 -30 0 
-9 -28 0 
-9 -29 0 
-9 -30 0 
-7 -40 0 
-7 -41 0 
-7 -42 0 
-8 -40 0 
-8 -41 0 
-8 -42 0 
-9 -40 0 
-9 -41 0 
-9 -42 0 
-7 -55 0 
-7 -56 0 
-7 -57 0 
-8 -55 0 
-8 -56 0 
-8 -57 0 
-9 -55 0 
-9 -56 0 
-9 -57 0 
-10 -13 0 
-10 -14 0 
-10 -15 0 
-11 -13 0 
-11 -14 0 
-11 -15 0 
-12 -13 0 
-12 -14 0 
-12 -15 0 
-10 -16 0 
-10 -17 0 
-10 -18 0 
-11 -16 0 
-11 -17 0 
-11 -18 0 
-12 -16 0 
-12 -17 0 
-12 -18 0 
-10 -25 0 
-10 -26 0 
-10 -27 0 
-11 -25 0 
-11 -26 0 
-11 -27 0 
-12 -25 0 
-12 -26 0 
-12 -27 0 
-10 -49 0 
-10 -50 0 
-10 -51 0 
-11 -49 0 
-11 -50 0 
-11 -51 0 
-12 -49 0 
-12 -50 0 
-12 -51 0 
-10 -61 0 
-10 -62 0 
-10 -63 0 
-11 -61 0 
-11 -62 0 
-11 -63 0 
-12 -61 0 
-12 -62 0 
-12 -63 0 
-13 -25 0 
-13 -26 0 
-13 -27 0 
-14 -25 0 
-14 -26 0 
-14 -27 0 
-15 -25 0 
-15 -26 0 
-15 -27 0 
-13 -49 0 
-13 -50 0 
-13 -51 0 
-14 -49 0 
-14 -50 0 
-14 -51 0 
-15 -49 0 
-15 -50 0 
-15 -51 0 
-13 -52 0 
-13 -53 0 
-13 -54 0 
-14 -52 0 
-14 -53 0 
-14 -54 0 
-15 -52 0 
-15 -53 0 
-15 -54 0 
-13 -55 0 
-13 -56 0 
-13 -57 0 
-14 -55 0 
-14 -56 0 
-14 -57 0 
-15 -55 0 
-15 -56 0 
-15 -57 0 
-13 -64 0 
-13 -65 0 
-13 -66 0 
-14 -64 0 
-14 -65 0 
-14 -66 0 
-15 -64 0 
-15 -65 0 
-15 -66 0 
-16 -22 0 
-16 -23 0 
-16 -24 0 
-17 -22 0 
-17 -23 0 
-17 -24 0 
-18 -22 0 
-18 -23 0 
-18 -24 0 
-16 -28 0 
-16 -29 0 
-16 -30 0 
-17 -28 0 
-17 -29 0 
-17 -30 0 
-18 -28 0 
-18 -29 0 
-18 -30 0 
-16 -43 0 
-16 -44 0 
-16 -45 0 
-17 -43 0 
-17 -44 0 
-17 -45 0 
-18 -43 0 
-18 -44 0 
-18 -45 0 
-19 -22 0 
-19 -23 0 
-19 -24 0 
-20 -22 0 
-20 -23 0 
-20 -24 0 
-21 -22 0 
-21 -23 0 
-21 -24 0 
-19 -40 0 
-19 -41 0 
-19 -42 0 
-20 -40 0 
-20 -41 0 
-20 -42 0 
-21 -40 0 
-21 -41 0 
-21 -42 0 
-22 -55 0 
-22 -56 0 
-22 -57 0 
-23 -55 0 
-23 -56 0 
-23 -57 0 
-24 -55 0 
-24 -56 0 
-24 -57 0 
-25 -28 0 
-25 -29 0 
-25 -30 0 
-26 -28 0 
-26 -29 0 
-26 -30 0 
-27 -28 0 
-27 -29 0 
-27 -30 0 
-25 -40 0 
-25 -41 0 
-25 -42 0 
-26 -40 0 
-26 -41 0 
-26 -42 0 
-27 -40 0 
-27 -41 0 
-27 -42 0 
-25 -55 0 
-25 -56 0 
-25 -57 0 
-26 -55 0 
-26 -56 0 
-26 -57 0 
-27 -55 0 
-27 -56 0 
-27 -57 0 
-28 -37 0 
-28 -38 0 
-28 -39 0 
-29 -37 0 
-29 -38 0 
-29 -39 0 
-30 -37 0 
-30 -38 0 
-30 -39 0 
-28 -49 0 
-28 -50 0 
-28 -51 0 
-29 -49 0 
-29 -50 0 
-29 -51 0 
-30 -49 0 
-30 -50 0 
-30 -51 0 
-28 -58 0 
-28 -59 0 
-28 -60 0 
-29 -58 0 
-29 -59 0 
-29 -60 0 
-30 -58 0 
-30 -59 0 
-30 -60 0 
-31 -37 0 
-31 -38 0 
-31 -39 0 
-32 -37 0 
-32 -38 0 
-32 -39 0 
-33 -37 0 
-33 -38 0 
-33 -39 0 
-40 -52 0 
-40 -53 0 
-40 -54 0 
-41 -52 0 
-41 -53 0 
-41 -54 0 
-42 -52 0 
-42 -53 0 
-42 -54 0 
-40 -58 0 
-40 -59 0 
-40 -60 0 
-41 -58 0 
-41 -59 0 
-41 -60 0 
-42 -58 0 
-42 -59 0 
-42 -60 0 
-43 -61 0 
-43 -62 0 
-43 -63 0 
-44 -61 0 
-44 -62 0 
-44 -63 0 
-45 -61 0 
-45 -62 0 
-45 -63 0 
-49 -55 0 
-49 -56 0 
-49 -57 0 
-50 -55 0 
-50 -56 0 
-50 -57 0 
-51 -55 0 
-51 -56 0 
-51 -57 0 
